c File: data_files/evolved_graphs/g3712.col
c
c Auto generated graph
c
p edge 100 1764
e 1 3
e 1 4
e 1 5
e 1 8
e 1 15
e 1 17
e 1 24
e 1 52
e 1 53
e 1 54
e 1 71
e 1 74
e 1 78
e 1 82
e 1 83
e 1 85
e 1 86
e 1 89
e 1 95
e 2 3
e 2 4
e 2 5
e 2 6
e 2 9
e 2 10
e 2 12
e 2 14
e 2 16
e 2 19
e 2 27
e 2 34
e 2 40
e 2 45
e 2 46
e 2 49
e 2 57
e 2 71
e 2 80
e 2 81
e 2 89
e 2 93
e 2 100
e 3 4
e 3 5
e 3 6
e 3 8
e 3 11
e 3 12
e 3 32
e 3 33
e 3 45
e 3 53
e 3 54
e 3 67
e 3 85
e 4 5
e 4 6
e 4 8
e 4 10
e 4 11
e 4 21
e 4 26
e 4 42
e 4 50
e 4 53
e 4 55
e 4 80
e 4 86
e 4 97
e 5 6
e 5 7
e 5 9
e 5 10
e 5 11
e 5 12
e 5 13
e 5 14
e 5 17
e 5 30
e 5 35
e 5 39
e 5 44
e 5 54
e 5 55
e 5 59
e 5 61
e 5 79
e 5 92
e 6 7
e 6 8
e 6 9
e 6 10
e 6 11
e 6 12
e 6 13
e 6 18
e 6 19
e 6 29
e 6 34
e 6 43
e 6 49
e 6 51
e 6 55
e 6 57
e 6 68
e 6 80
e 6 85
e 6 89
e 6 91
e 6 96
e 6 98
e 6 100
e 7 9
e 7 10
e 7 12
e 7 14
e 7 28
e 7 30
e 7 35
e 7 36
e 7 37
e 7 38
e 7 39
e 7 41
e 7 44
e 7 46
e 7 47
e 7 57
e 7 59
e 7 60
e 7 61
e 7 63
e 7 78
e 7 80
e 7 81
e 7 82
e 7 84
e 7 85
e 7 90
e 7 94
e 7 96
e 7 97
e 8 9
e 8 10
e 8 11
e 8 12
e 8 13
e 8 29
e 8 32
e 8 37
e 8 39
e 8 40
e 8 41
e 8 42
e 8 44
e 8 56
e 8 66
e 8 67
e 8 76
e 8 89
e 8 96
e 9 10
e 9 12
e 9 13
e 9 24
e 9 48
e 9 53
e 9 56
e 9 60
e 9 62
e 9 64
e 9 74
e 9 91
e 9 96
e 10 12
e 10 14
e 10 17
e 10 19
e 10 26
e 10 28
e 10 29
e 10 31
e 10 32
e 10 36
e 10 40
e 10 44
e 10 53
e 10 64
e 10 70
e 10 73
e 10 78
e 10 80
e 10 86
e 10 89
e 10 100
e 11 12
e 11 15
e 11 17
e 11 24
e 11 34
e 11 41
e 11 45
e 11 46
e 11 57
e 11 59
e 11 62
e 11 67
e 11 72
e 11 84
e 11 99
e 11 100
e 12 13
e 12 16
e 12 33
e 12 38
e 12 41
e 12 51
e 12 53
e 12 55
e 12 58
e 12 63
e 12 65
e 12 67
e 12 69
e 12 70
e 12 77
e 12 87
e 12 91
e 12 94
e 12 99
e 13 14
e 13 15
e 13 16
e 13 17
e 13 19
e 13 20
e 13 21
e 13 22
e 13 23
e 13 25
e 13 26
e 13 27
e 13 30
e 13 33
e 13 34
e 13 35
e 13 36
e 13 37
e 13 41
e 13 43
e 13 50
e 13 51
e 13 79
e 13 81
e 13 86
e 13 91
e 13 99
e 14 16
e 14 18
e 14 21
e 14 23
e 14 27
e 14 29
e 14 30
e 14 32
e 14 33
e 14 35
e 14 37
e 14 38
e 14 39
e 14 41
e 14 42
e 14 47
e 14 50
e 14 52
e 14 53
e 14 54
e 14 55
e 14 56
e 14 57
e 14 61
e 14 62
e 14 65
e 14 70
e 14 72
e 14 76
e 14 78
e 14 79
e 14 87
e 14 88
e 14 89
e 14 90
e 14 92
e 14 93
e 14 95
e 15 17
e 15 18
e 15 19
e 15 20
e 15 21
e 15 22
e 15 23
e 15 24
e 15 26
e 15 33
e 15 34
e 15 36
e 15 37
e 15 38
e 15 42
e 15 47
e 15 48
e 15 50
e 15 55
e 15 60
e 15 61
e 15 69
e 15 74
e 15 78
e 15 79
e 15 80
e 15 82
e 15 83
e 15 84
e 15 85
e 15 86
e 15 87
e 15 88
e 15 90
e 15 91
e 15 92
e 15 97
e 16 18
e 16 19
e 16 20
e 16 21
e 16 23
e 16 24
e 16 25
e 16 26
e 16 27
e 16 28
e 16 29
e 16 31
e 16 32
e 16 34
e 16 38
e 16 40
e 16 41
e 16 43
e 16 45
e 16 47
e 16 48
e 16 51
e 16 52
e 16 53
e 16 54
e 16 56
e 16 60
e 16 61
e 16 66
e 16 69
e 16 70
e 16 75
e 16 76
e 16 77
e 16 86
e 16 87
e 16 88
e 16 91
e 16 92
e 17 18
e 17 20
e 17 22
e 17 23
e 17 24
e 17 29
e 17 34
e 17 37
e 17 38
e 17 40
e 17 41
e 17 42
e 17 43
e 17 44
e 17 47
e 17 49
e 17 50
e 17 52
e 17 62
e 17 63
e 17 65
e 17 69
e 17 71
e 17 76
e 17 77
e 17 80
e 17 81
e 17 83
e 17 86
e 17 87
e 17 88
e 17 91
e 17 92
e 18 19
e 18 20
e 18 22
e 18 23
e 18 27
e 18 29
e 18 32
e 18 34
e 18 35
e 18 36
e 18 37
e 18 39
e 18 40
e 18 41
e 18 44
e 18 46
e 18 48
e 18 49
e 18 50
e 18 51
e 18 55
e 18 56
e 18 59
e 18 61
e 18 63
e 18 64
e 18 65
e 18 66
e 18 67
e 18 69
e 18 70
e 18 71
e 18 76
e 18 77
e 18 80
e 18 81
e 18 84
e 18 88
e 18 91
e 18 92
e 19 21
e 19 22
e 19 23
e 19 25
e 19 26
e 19 27
e 19 28
e 19 29
e 19 30
e 19 31
e 19 32
e 19 33
e 19 34
e 19 35
e 19 36
e 19 37
e 19 39
e 19 41
e 19 44
e 19 45
e 19 49
e 19 51
e 19 52
e 19 54
e 19 60
e 19 67
e 19 71
e 19 72
e 19 74
e 19 75
e 19 76
e 19 78
e 19 79
e 19 80
e 19 81
e 19 84
e 19 85
e 19 86
e 19 91
e 19 92
e 19 98
e 20 21
e 20 22
e 20 24
e 20 25
e 20 28
e 20 29
e 20 30
e 20 32
e 20 36
e 20 37
e 20 38
e 20 39
e 20 44
e 20 46
e 20 47
e 20 48
e 20 54
e 20 55
e 20 56
e 20 64
e 20 66
e 20 68
e 20 71
e 20 72
e 20 74
e 20 77
e 20 78
e 20 80
e 20 82
e 20 83
e 20 84
e 20 90
e 20 91
e 21 22
e 21 24
e 21 27
e 21 28
e 21 29
e 21 30
e 21 31
e 21 33
e 21 34
e 21 35
e 21 36
e 21 37
e 21 40
e 21 44
e 21 45
e 21 49
e 21 52
e 21 53
e 21 55
e 21 58
e 21 60
e 21 64
e 21 65
e 21 68
e 21 70
e 21 72
e 21 73
e 21 76
e 21 79
e 21 81
e 21 82
e 21 83
e 21 84
e 21 87
e 21 88
e 21 90
e 21 91
e 22 23
e 22 24
e 22 25
e 22 26
e 22 27
e 22 28
e 22 31
e 22 34
e 22 35
e 22 36
e 22 41
e 22 45
e 22 46
e 22 47
e 22 48
e 22 52
e 22 53
e 22 56
e 22 60
e 22 62
e 22 66
e 22 69
e 22 72
e 22 73
e 22 74
e 22 76
e 22 78
e 22 79
e 22 80
e 22 81
e 22 82
e 22 87
e 22 90
e 22 92
e 22 96
e 22 97
e 23 24
e 23 25
e 23 26
e 23 27
e 23 28
e 23 29
e 23 31
e 23 32
e 23 34
e 23 35
e 23 36
e 23 37
e 23 38
e 23 39
e 23 42
e 23 44
e 23 45
e 23 46
e 23 48
e 23 49
e 23 51
e 23 52
e 23 56
e 23 57
e 23 58
e 23 60
e 23 61
e 23 62
e 23 64
e 23 69
e 23 71
e 23 72
e 23 74
e 23 76
e 23 77
e 23 78
e 23 81
e 23 83
e 23 84
e 23 88
e 23 89
e 23 92
e 24 25
e 24 26
e 24 27
e 24 28
e 24 30
e 24 31
e 24 33
e 24 35
e 24 36
e 24 37
e 24 38
e 24 41
e 24 42
e 24 45
e 24 47
e 24 52
e 24 62
e 24 67
e 24 68
e 24 74
e 24 76
e 24 77
e 24 81
e 24 82
e 24 87
e 24 88
e 24 90
e 24 91
e 25 27
e 25 28
e 25 29
e 25 30
e 25 33
e 25 35
e 25 36
e 25 39
e 25 40
e 25 41
e 25 44
e 25 45
e 25 46
e 25 50
e 25 53
e 25 54
e 25 56
e 25 59
e 25 60
e 25 62
e 25 68
e 25 69
e 25 73
e 25 74
e 25 76
e 25 78
e 25 80
e 25 81
e 25 88
e 25 89
e 25 91
e 25 92
e 26 27
e 26 28
e 26 31
e 26 32
e 26 33
e 26 34
e 26 35
e 26 37
e 26 39
e 26 41
e 26 43
e 26 48
e 26 49
e 26 53
e 26 57
e 26 61
e 26 62
e 26 63
e 26 64
e 26 65
e 26 70
e 26 71
e 26 72
e 26 74
e 26 76
e 26 78
e 26 79
e 26 84
e 26 86
e 26 88
e 26 89
e 26 90
e 26 91
e 27 29
e 27 30
e 27 31
e 27 32
e 27 37
e 27 52
e 27 56
e 27 60
e 27 62
e 27 64
e 27 65
e 27 66
e 27 67
e 27 68
e 27 70
e 27 75
e 27 77
e 27 79
e 27 83
e 27 85
e 27 89
e 27 90
e 27 92
e 28 29
e 28 30
e 28 31
e 28 33
e 28 34
e 28 36
e 28 37
e 28 41
e 28 42
e 28 43
e 28 44
e 28 46
e 28 47
e 28 50
e 28 56
e 28 57
e 28 60
e 28 63
e 28 66
e 28 67
e 28 68
e 28 71
e 28 75
e 28 77
e 28 80
e 28 81
e 28 82
e 28 87
e 28 92
e 29 30
e 29 31
e 29 32
e 29 33
e 29 34
e 29 35
e 29 37
e 29 44
e 29 46
e 29 47
e 29 48
e 29 49
e 29 55
e 29 61
e 29 62
e 29 63
e 29 64
e 29 66
e 29 67
e 29 74
e 29 75
e 29 77
e 29 80
e 29 82
e 29 83
e 29 86
e 29 89
e 29 90
e 29 99
e 30 31
e 30 32
e 30 33
e 30 34
e 30 35
e 30 36
e 30 38
e 30 40
e 30 44
e 30 46
e 30 51
e 30 53
e 30 54
e 30 55
e 30 58
e 30 60
e 30 62
e 30 63
e 30 65
e 30 67
e 30 68
e 30 69
e 30 75
e 30 76
e 30 81
e 30 82
e 30 83
e 30 84
e 30 85
e 30 86
e 30 87
e 30 90
e 30 91
e 30 92
e 31 33
e 31 34
e 31 36
e 31 37
e 31 38
e 31 39
e 31 41
e 31 42
e 31 43
e 31 44
e 31 48
e 31 50
e 31 51
e 31 53
e 31 57
e 31 58
e 31 61
e 31 63
e 31 66
e 31 67
e 31 68
e 31 70
e 31 72
e 31 73
e 31 75
e 31 81
e 31 85
e 31 88
e 31 91
e 31 93
e 32 35
e 32 36
e 32 37
e 32 48
e 32 49
e 32 51
e 32 54
e 32 55
e 32 58
e 32 62
e 32 66
e 32 67
e 32 71
e 32 73
e 32 74
e 32 76
e 32 78
e 32 80
e 32 81
e 32 86
e 32 89
e 32 90
e 33 34
e 33 35
e 33 37
e 33 39
e 33 42
e 33 44
e 33 45
e 33 48
e 33 52
e 33 53
e 33 56
e 33 60
e 33 66
e 33 68
e 33 70
e 33 71
e 33 76
e 33 77
e 33 78
e 33 79
e 33 81
e 33 87
e 33 92
e 34 38
e 34 42
e 34 43
e 34 44
e 34 47
e 34 50
e 34 51
e 34 53
e 34 55
e 34 57
e 34 58
e 34 59
e 34 64
e 34 65
e 34 77
e 34 79
e 34 81
e 34 84
e 34 86
e 34 87
e 34 88
e 34 90
e 34 93
e 35 36
e 35 38
e 35 40
e 35 41
e 35 42
e 35 43
e 35 45
e 35 47
e 35 51
e 35 58
e 35 62
e 35 67
e 35 69
e 35 71
e 35 73
e 35 76
e 35 79
e 35 84
e 35 86
e 35 90
e 35 92
e 36 37
e 36 39
e 36 42
e 36 43
e 36 47
e 36 48
e 36 49
e 36 51
e 36 55
e 36 56
e 36 57
e 36 58
e 36 60
e 36 62
e 36 64
e 36 67
e 36 68
e 36 70
e 36 71
e 36 72
e 36 75
e 36 80
e 36 81
e 36 82
e 36 85
e 36 86
e 36 87
e 36 88
e 36 89
e 36 90
e 36 91
e 36 96
e 37 41
e 37 43
e 37 44
e 37 54
e 37 55
e 37 56
e 37 57
e 37 58
e 37 62
e 37 69
e 37 70
e 37 71
e 37 74
e 37 77
e 37 80
e 37 84
e 37 85
e 37 89
e 37 90
e 38 39
e 38 42
e 38 43
e 38 44
e 38 46
e 38 48
e 38 49
e 38 50
e 38 51
e 38 52
e 38 74
e 38 85
e 38 95
e 38 99
e 39 40
e 39 41
e 39 42
e 39 44
e 39 45
e 39 46
e 39 49
e 39 50
e 39 51
e 39 76
e 39 90
e 39 93
e 40 41
e 40 42
e 40 43
e 40 45
e 40 46
e 40 47
e 40 48
e 40 49
e 40 51
e 40 97
e 40 98
e 41 44
e 41 47
e 41 48
e 41 49
e 41 50
e 41 51
e 41 52
e 41 61
e 41 80
e 41 95
e 42 44
e 42 45
e 42 48
e 42 50
e 43 45
e 43 46
e 43 47
e 43 48
e 43 49
e 43 52
e 44 45
e 44 47
e 44 48
e 44 49
e 44 51
e 44 52
e 44 77
e 44 95
e 44 98
e 44 99
e 45 46
e 45 47
e 45 48
e 45 49
e 45 50
e 45 51
e 46 47
e 46 50
e 46 51
e 47 49
e 47 50
e 47 51
e 47 52
e 47 63
e 47 64
e 47 85
e 48 88
e 48 97
e 49 50
e 49 51
e 49 57
e 49 98
e 50 65
e 50 71
e 50 74
e 50 77
e 50 99
e 51 52
e 51 64
e 51 69
e 51 70
e 51 83
e 53 54
e 53 55
e 53 56
e 53 57
e 53 58
e 53 59
e 53 66
e 53 68
e 53 69
e 53 70
e 53 71
e 53 72
e 53 73
e 53 74
e 53 75
e 53 78
e 53 79
e 53 80
e 53 81
e 53 82
e 53 83
e 53 85
e 53 86
e 53 87
e 53 90
e 53 94
e 53 95
e 53 96
e 54 57
e 54 58
e 54 59
e 54 60
e 54 63
e 54 64
e 54 65
e 54 74
e 54 75
e 54 76
e 54 77
e 54 78
e 54 80
e 54 81
e 54 84
e 54 85
e 54 86
e 54 87
e 54 89
e 54 90
e 54 91
e 54 94
e 54 96
e 55 56
e 55 57
e 55 58
e 55 59
e 55 60
e 55 63
e 55 64
e 55 65
e 55 66
e 55 68
e 55 69
e 55 70
e 55 72
e 55 74
e 55 75
e 55 76
e 55 77
e 55 79
e 55 81
e 55 83
e 55 87
e 55 89
e 55 90
e 55 91
e 55 92
e 55 93
e 55 94
e 55 95
e 55 96
e 56 57
e 56 59
e 56 60
e 56 61
e 56 63
e 56 64
e 56 65
e 56 68
e 56 69
e 56 71
e 56 72
e 56 73
e 56 77
e 56 78
e 56 79
e 56 80
e 56 82
e 56 85
e 56 86
e 56 87
e 56 88
e 56 89
e 56 93
e 56 94
e 56 95
e 57 58
e 57 59
e 57 60
e 57 61
e 57 63
e 57 66
e 57 67
e 57 68
e 57 69
e 57 71
e 57 73
e 57 74
e 57 75
e 57 77
e 57 78
e 57 79
e 57 81
e 57 82
e 57 83
e 57 84
e 57 85
e 57 87
e 57 89
e 57 90
e 57 91
e 57 92
e 57 93
e 57 94
e 57 95
e 57 97
e 57 100
e 58 59
e 58 61
e 58 62
e 58 63
e 58 64
e 58 65
e 58 66
e 58 67
e 58 68
e 58 70
e 58 72
e 58 73
e 58 77
e 58 79
e 58 80
e 58 82
e 58 86
e 58 87
e 58 88
e 58 89
e 58 91
e 58 92
e 58 93
e 58 94
e 59 60
e 59 61
e 59 63
e 59 65
e 59 66
e 59 67
e 59 69
e 59 70
e 59 71
e 59 73
e 59 74
e 59 75
e 59 77
e 59 78
e 59 79
e 59 81
e 59 82
e 59 83
e 59 85
e 59 88
e 59 89
e 59 90
e 59 91
e 59 92
e 59 96
e 59 98
e 60 61
e 60 62
e 60 64
e 60 67
e 60 68
e 60 69
e 60 70
e 60 71
e 60 72
e 60 75
e 60 76
e 60 77
e 60 78
e 60 79
e 60 80
e 60 81
e 60 82
e 60 83
e 60 85
e 60 87
e 60 91
e 60 94
e 60 95
e 60 97
e 60 99
e 61 63
e 61 64
e 61 65
e 61 66
e 61 67
e 61 68
e 61 69
e 61 71
e 61 72
e 61 73
e 61 74
e 61 76
e 61 77
e 61 78
e 61 79
e 61 81
e 61 82
e 61 84
e 61 88
e 61 90
e 61 91
e 61 92
e 61 93
e 61 95
e 61 96
e 62 64
e 62 65
e 62 66
e 62 67
e 62 69
e 62 73
e 62 74
e 62 75
e 62 76
e 62 77
e 62 79
e 62 80
e 62 81
e 62 82
e 62 83
e 62 84
e 62 85
e 62 86
e 62 87
e 62 88
e 62 89
e 62 90
e 62 91
e 62 96
e 63 67
e 63 68
e 63 69
e 63 71
e 63 72
e 63 73
e 63 74
e 63 76
e 63 77
e 63 82
e 63 83
e 63 84
e 63 85
e 63 86
e 63 87
e 63 91
e 63 92
e 63 93
e 63 94
e 63 95
e 64 65
e 64 66
e 64 67
e 64 69
e 64 70
e 64 71
e 64 75
e 64 77
e 64 80
e 64 81
e 64 84
e 64 85
e 64 88
e 64 89
e 64 91
e 64 94
e 64 95
e 65 66
e 65 68
e 65 70
e 65 72
e 65 73
e 65 75
e 65 78
e 65 79
e 65 80
e 65 81
e 65 82
e 65 83
e 65 84
e 65 87
e 65 88
e 65 89
e 65 91
e 65 94
e 65 96
e 66 70
e 66 71
e 66 72
e 66 73
e 66 75
e 66 77
e 66 79
e 66 80
e 66 81
e 66 82
e 66 83
e 66 84
e 66 85
e 66 86
e 66 87
e 66 88
e 66 89
e 66 90
e 66 91
e 66 92
e 66 95
e 66 96
e 66 99
e 67 68
e 67 69
e 67 71
e 67 72
e 67 73
e 67 74
e 67 75
e 67 77
e 67 79
e 67 80
e 67 81
e 67 82
e 67 83
e 67 84
e 67 85
e 67 86
e 67 88
e 67 93
e 67 95
e 67 96
e 68 69
e 68 70
e 68 71
e 68 73
e 68 75
e 68 76
e 68 77
e 68 78
e 68 80
e 68 82
e 68 83
e 68 84
e 68 85
e 68 87
e 68 88
e 68 89
e 68 90
e 68 92
e 68 93
e 68 95
e 68 96
e 68 97
e 69 71
e 69 72
e 69 74
e 69 75
e 69 76
e 69 77
e 69 79
e 69 80
e 69 81
e 69 82
e 69 84
e 69 86
e 69 88
e 69 89
e 69 91
e 69 92
e 69 96
e 70 71
e 70 73
e 70 77
e 70 78
e 70 79
e 70 83
e 70 85
e 70 86
e 70 87
e 70 89
e 70 90
e 70 93
e 70 94
e 70 95
e 70 96
e 70 97
e 71 74
e 71 75
e 71 78
e 71 80
e 71 81
e 71 83
e 71 84
e 71 85
e 71 87
e 71 88
e 71 89
e 71 90
e 71 95
e 71 96
e 71 97
e 71 99
e 72 75
e 72 77
e 72 80
e 72 81
e 72 82
e 72 83
e 72 84
e 72 86
e 72 87
e 72 88
e 72 89
e 72 90
e 72 91
e 72 92
e 72 94
e 72 95
e 72 96
e 73 75
e 73 77
e 73 78
e 73 80
e 73 82
e 73 83
e 73 85
e 73 86
e 73 87
e 73 89
e 73 90
e 73 91
e 73 92
e 73 94
e 73 96
e 73 98
e 74 75
e 74 76
e 74 77
e 74 78
e 74 79
e 74 81
e 74 82
e 74 83
e 74 85
e 74 86
e 74 87
e 74 89
e 74 90
e 74 91
e 74 93
e 74 94
e 74 95
e 74 97
e 75 76
e 75 77
e 75 79
e 75 80
e 75 81
e 75 82
e 75 83
e 75 84
e 75 85
e 75 86
e 75 88
e 75 89
e 75 90
e 75 91
e 75 92
e 75 94
e 76 77
e 76 78
e 76 79
e 76 80
e 76 82
e 76 85
e 76 86
e 76 87
e 76 88
e 76 89
e 76 92
e 76 93
e 76 96
e 77 78
e 77 79
e 77 80
e 77 81
e 77 82
e 77 83
e 77 84
e 77 85
e 77 90
e 77 91
e 77 92
e 77 93
e 77 96
e 78 79
e 78 80
e 78 81
e 78 82
e 78 83
e 78 84
e 78 88
e 78 91
e 78 92
e 78 95
e 78 99
e 79 80
e 79 82
e 79 83
e 79 85
e 79 87
e 79 88
e 79 89
e 79 90
e 79 91
e 79 92
e 79 93
e 79 94
e 79 95
e 79 97
e 80 81
e 80 82
e 80 83
e 80 84
e 80 85
e 80 89
e 80 91
e 80 94
e 80 95
e 81 82
e 81 84
e 81 85
e 81 86
e 81 87
e 81 88
e 81 89
e 81 90
e 81 96
e 82 83
e 82 85
e 82 86
e 82 87
e 82 88
e 82 89
e 82 91
e 82 92
e 82 93
e 82 94
e 82 96
e 82 98
e 83 84
e 83 85
e 83 86
e 83 88
e 83 89
e 83 90
e 83 91
e 83 92
e 83 93
e 83 94
e 83 96
e 83 98
e 83 99
e 84 86
e 84 87
e 84 88
e 84 89
e 84 90
e 84 91
e 84 93
e 84 94
e 84 95
e 84 96
e 84 99
e 85 87
e 85 88
e 85 89
e 85 90
e 85 92
e 85 93
e 85 95
e 85 98
e 85 100
e 86 87
e 86 90
e 86 92
e 86 93
e 86 94
e 86 96
e 86 97
e 87 92
e 87 93
e 87 95
e 87 96
e 88 90
e 88 91
e 88 93
e 88 94
e 88 95
e 88 96
e 89 90
e 89 92
e 89 94
e 89 97
e 89 98
e 90 93
e 90 94
e 90 96
e 90 98
e 91 93
e 91 94
e 91 96
e 91 97
e 92 93
e 92 94
e 92 95
e 92 96
e 92 100
e 93 94
e 93 96
e 93 99
e 93 100
e 94 97
e 95 97
e 98 99
e 99 100
